(set-logic QF_NRA)
(declare-fun buscore0dollarsk_0 () Real)
(declare-fun a () Real)
(declare-fun c () Real)
(declare-fun y0 () Real)
(declare-fun x0 () Real)
(declare-fun t1uscore0dollarsk_3 () Real)
(declare-fun t2uscore0dollarsk_2 () Real)
(declare-fun tuscore0dollarsk_1 () Real)
(assert (= (* c c) (+ (* a a) (* buscore0dollarsk_0 buscore0dollarsk_0))))
(assert (= (* c c)
           (+ (* x0 x0)
              (* (+ y0 (* (- 1.0) buscore0dollarsk_0))
                 (+ y0 (* (- 1.0) buscore0dollarsk_0))))))
(assert (= (* t1uscore0dollarsk_3 y0) (+ a x0)))
(assert (= (* t2uscore0dollarsk_2 y0) (+ a (* (- 1.0) x0))))
(assert (= (* tuscore0dollarsk_1
              (+ 1.0 (* (- 1.0) t1uscore0dollarsk_3 t2uscore0dollarsk_2)))
           (+ t1uscore0dollarsk_3 t2uscore0dollarsk_2)))
(assert (not (= y0 0.0)))
(assert (not (= a 0.0)))
(assert (not (= (* buscore0dollarsk_0 tuscore0dollarsk_1) a)))
(check-sat)
(exit)
